\ENCODING=ISO-8859-1
\Problem name: GAPinst

Maximize
 obj1: w'0 + w'1 + w'2 + w'3 + w'4 + w'5 + w'6 + w'7 + 90 w''8 + 70 w''9
Subject To
 c0:  w'0 + 38 w''8 <= 22
 c1:  w'1 + 37 w''8 <= 24
 c2:  w'2 + 36 w''8 <= 26
 c3:  w'3 + 35 w''8 <= 28
 c4:  w'4 + 34 w''8 <= 30
 c5:  w'5 + 33 w''8 <= 32
 c6:  w'6 + 32 w''8 <= 34
 c7:  w'7 + 31 w''8 <= 36
 c8:  w'0 + 28 w''9 <= 60
 c9:  w'1 + 27 w''9 <= 64
 c10: w'2 + 26 w''9 <= 68
 c11: w'3 + 25 w''9 <= 72
 c12: w'4 + 24 w''9 <= 76
 c13: w'5 + 23 w''9 <= 80
 c14: w'6 + 22 w''9 <= 84
 c15: w'7 + 21 w''9 <= 88
Bounds
      w'0 >= 2.2250738585072e-308
      w'1 >= 2.2250738585072e-308
      w'2 >= 2.2250738585072e-308
      w'3 >= 2.2250738585072e-308
      w'4 >= 2.2250738585072e-308
      w'5 >= 2.2250738585072e-308
      w'6 >= 2.2250738585072e-308
      w'7 >= 2.2250738585072e-308
 2.2250738585072e-308 <= w''8 <= 0
 2.2250738585072e-308 <= w''9 <= 0
End
